Ir                                      
    40.00000000000000     
     1.0000000000000000    0.0000000000000000    0.0000000000000000
     0.0000000000000000    1.0000000000000000    0.0000000000000000
     0.0000000000000000    0.0000000000000000    1.0000000000000000
 309
Selective dynamics
Direct
  0.5882301941051611  0.5882425190062551  0.5882380759779587   T   T   T
  0.5882356917450331  0.5882366464243762  0.6522011439439025   T   T   T
  0.6059002438936459  0.5338396602367149  0.6168393569812815   T   T   T
  0.5419422197105673  0.5546253964665924  0.6168447252478425   T   T   T
  0.5419505284686131  0.6218690662282615  0.6168405042466544   T   T   T
  0.6059073208643163  0.6426430914254934  0.6168436105726920   T   T   T
  0.6454382379802310  0.5882325613599787  0.6168402211074870   T   T   T
  0.5705437660383446  0.5338400397804454  0.5596225501165956   T   T   T
  0.5310274167411010  0.5882268619940754  0.5596199443637738   T   T   T
  0.5705446106130914  0.6426397470329051  0.5596225842936949   T   T   T
  0.6345089530760780  0.6218529980573557  0.5596203451835079   T   T   T
  0.6345076689104969  0.5546153123979579  0.5596236360919306   T   T   T
  0.5882255688674008  0.5882270843987050  0.5242711484481586   T   T   T
  0.5882285031544288  0.5882394869373173  0.7179067440729032   T   T   T
  0.6063746542703011  0.5323955189445300  0.6832413328385617   T   T   T
  0.5407414461706542  0.5537271612453499  0.6832329984336707   T   T   T
  0.5407506868291547  0.6227589574074180  0.6832392820972449   T   T   T
  0.6063788501763328  0.6440810457977487  0.6832411824512411   T   T   T
  0.6469389488755418  0.5882364218780975  0.6832382818971441   T   T   T
  0.6650869380122539  0.5323847089157392  0.6469376470247689   T   T   T
  0.6240724246820013  0.4779542521446196  0.6462247143298741   T   T   T
  0.5588629200346051  0.4978840702931546  0.6469375443748629   T   T   T
  0.4943920509533433  0.5200864295488394  0.6462196096278073   T   T   T
  0.4932288728854856  0.5882647188676949  0.6469483376562373   T   T   T
  0.4943977207456485  0.6564113553383645  0.6462272455715762   T   T   T
  0.5588766825311050  0.6785871169278284  0.6469444554649992   T   T   T
  0.6240806255012414  0.6985290582600774  0.6462198879379863   T   T   T
  0.6650925844524352  0.6440692099948992  0.6469344643410844   T   T   T
  0.7041982184396844  0.5882151503521653  0.6462279657653042   T   T   T
  0.6538610462636818  0.4978719506035342  0.5882268824206834   T   T   T
  0.5882156694466142  0.4765833746731901  0.5882330545512013   T   T   T
  0.5225720291707039  0.4978861568331813  0.5882381115710815   T   T   T
  0.4820187407557315  0.5537349063027170  0.5882408622063179   T   T   T
  0.4820212994918092  0.6227482188622712  0.5882367105743088   T   T   T
  0.5225807543002163  0.6785770631273395  0.5882329958261321   T   T   T
  0.5882308903299940  0.6999134547848724  0.5882369296016259   T   T   T
  0.6538737117473272  0.6785674077852800  0.5882355771742537   T   T   T
  0.6944424203052990  0.6227256289943394  0.5882314398970332   T   T   T
  0.6944361587599608  0.5537127799014749  0.5882332201530610   T   T   T
  0.6175870205581100  0.4978785341602849  0.5295239682473374   T   T   T
  0.5523753104651172  0.4779471411019465  0.5302502000877839   T   T   T
  0.5113640324528806  0.5323957640956447  0.5295158063921135   T   T   T
  0.4722560758137155  0.5882319717707672  0.5302525679589026   T   T   T
  0.5113698051854073  0.6440684900177094  0.5295225804555573   T   T   T
  0.5523893905959530  0.6985299047335407  0.5302594511807160   T   T   T
  0.6175917240330800  0.6785654686446797  0.5295166784645073   T   T   T
  0.6820565808881741  0.6563929007376343  0.5302496806783469   T   T   T
  0.6832230270622575  0.5882326659164302  0.5295109049274568   T   T   T
  0.6820564649498145  0.5200626332001974  0.5302513759545425   T   T   T
  0.5700712644544292  0.5323964316005275  0.4932308414543874   T   T   T
  0.5295119623090070  0.5882384978772554  0.4932263254593988   T   T   T
  0.5700862916216551  0.6440728403072863  0.4932326552076307   T   T   T
  0.6357248262748850  0.6227205016840419  0.4932263925665823   T   T   T
  0.6357206181276350  0.5537103112358717  0.4932330623482157   T   T   T
  0.5882223149573848  0.5882230729789216  0.4585627100891346   T   T   T
  0.5882336786733762  0.5882402078836767  0.7829414077704352   T   T   T
  0.6065421405166055  0.5319169950456522  0.7495925786170663   T   T   T
  0.5403391394811994  0.5534454217835371  0.7495823001336510   T   T   T
  0.5403381891218938  0.6230604560891828  0.7495936853498351   T   T   T
  0.6065331836198585  0.6445620938660868  0.7495911560930745   T   T   T
  0.6474374997210035  0.5882368135594818  0.7495842836435695   T   T   T
  0.6660748189812780  0.5316678362094681  0.7141896147531777   T   T   T
  0.6246378846424362  0.4761676041236726  0.7133551283836332   T   T   T
  0.5584996253439130  0.4967352277248052  0.7142008348767684   T   T   T
  0.4929096722576615  0.5189916816617810  0.7133530792404243   T   T   T
  0.4920342869940803  0.5882550798905535  0.7141892043232140   T   T   T
  0.4929087435042288  0.6575045789481389  0.7133534465173855   T   T   T
  0.5585051652440443  0.6797602893930440  0.7141934715478923   T   T   T
  0.6246600965228647  0.7003022174141127  0.7133598222197012   T   T   T
  0.6660874904521339  0.6447887029251005  0.7141933056856677   T   T   T
  0.7060708865256579  0.5882248896893036  0.7133560526566398   T   T   T
  0.7243562465589040  0.5318960320582334  0.6767713951463479   T   T   T
  0.6838598495970910  0.4761597934572819  0.6767732090571830   T   T   T
  0.6420339419301075  0.4226233190295610  0.6752985366630437   T   T   T
  0.5767264871170923  0.4413848017549172  0.6767646473095683   T   T   T
  0.5111884019002069  0.4626707311584519  0.6767779874152562   T   T   T
  0.4473518576244221  0.4858874204089651  0.6753026740074047   T   T   T
  0.4449937994190048  0.5538023285118806  0.6767709774533197   T   T   T
  0.4449831343405234  0.6226955320565910  0.6767763398814046   T   T   T
  0.4473542008945834  0.6906132522312752  0.6752938632351343   T   T   T
  0.5112076161622031  0.7138247522068938  0.6767694720071258   T   T   T
  0.5767521909499983  0.7351093635242312  0.6767737910808870   T   T   T
  0.6420603025521444  0.7538388129589995  0.6752834764426786   T   T   T
  0.6838698785151920  0.7002904095711349  0.6767681301881172   T   T   T
  0.7243617209326554  0.6445416147528430  0.6767661883583549   T   T   T
  0.7623733674010506  0.5882132960905045  0.6752981996797033   T   T   T
  0.7141741886762248  0.4967177699567594  0.6179673692839925   T   T   T
  0.6725489952731868  0.4413688895162389  0.6175455350407434   T   T   T
  0.6063445716232373  0.4198854497141917  0.6175513032122016   T   T   T
  0.5401171962900591  0.4401867122691806  0.6179748019559523   T   T   T
  0.4746003236924589  0.4626562616894075  0.6175568914566072   T   T   T
  0.4336820227979970  0.5189911162974148  0.6175516005388477   T   T   T
  0.4325432668823507  0.5882514439950529  0.6179814065333247   T   T   T
  0.4336782950031977  0.6574960823464470  0.6175492026343867   T   T   T
  0.4746152914836371  0.7138162858400803  0.6175421513696382   T   T   T
  0.5401435892368686  0.7362940767217100  0.6179708185432304   T   T   T
  0.6063555564295512  0.7566160948987612  0.6175507629068943   T   T   T
  0.6725766245420371  0.7350971707534624  0.6175428298647129   T   T   T
  0.7141944958322611  0.6797337599358063  0.6179696104790268   T   T   T
  0.7539610104318516  0.6230172766563550  0.6175555648030218   T   T   T
  0.7539538481153594  0.5534128087051896  0.6175524153924886   T   T   T
  0.7018516211514459  0.4626410088213189  0.5589249784340988   T   T   T
  0.6363249376182583  0.4401764053160521  0.5585136821275755   T   T   T
  0.5700865646541151  0.4198802102106521  0.5589398001858037   T   T   T
  0.5038878788139391  0.4413727353794065  0.5589297869967369   T   T   T
  0.4622693149124193  0.4967357682482931  0.5585151884575282   T   T   T
  0.4225032884165655  0.5534345894441990  0.5589371827374415   T   T   T
  0.4225060493375473  0.6230502042727206  0.5589319548015822   T   T   T
  0.4622840488932923  0.6797568237416786  0.5585080567534905   T   T   T
  0.5039156646265585  0.7351153636700443  0.5589302586660055   T   T   T
  0.5701274974723436  0.7566146795442752  0.5589336266554533   T   T   T
  0.6363428791531179  0.7362799303657176  0.5585104198290888   T   T   T
  0.7018674522486361  0.7137974048162042  0.5589369103386366   T   T   T
  0.7427806537639566  0.6574609936648573  0.5589282732264713   T   T   T
  0.7439084115397245  0.5882220044559071  0.5585023664164008   T   T   T
  0.7427698932209785  0.5189718051010848  0.5589239511031446   T   T   T
  0.6652602300620883  0.4626475439292539  0.4997117353708286   T   T   T
  0.5997204076679888  0.4413755185737292  0.4997267949445916   T   T   T
  0.5344105314246904  0.4226256886912185  0.5011595341281979   T   T   T
  0.4925959668794943  0.4761764891873156  0.4997056734682833   T   T   T
  0.4521034430947719  0.5319121171046638  0.4997085544029930   T   T   T
  0.4141072876300043  0.5882350536195824  0.5011604667823184   T   T   T
  0.4521046068387252  0.6445630141961356  0.4997142404044483   T   T   T
  0.4926176522290736  0.7002939820511603  0.4997144251547262   T   T   T
  0.5344313313063574  0.7538387404309718  0.5011716534924548   T   T   T
  0.5997305066725546  0.7350904200590350  0.4997129514812123   T   T   T
  0.6652670810000625  0.7138056935240362  0.4997173519903738   T   T   T
  0.7291166270929231  0.6905839758755892  0.5011721976944269   T   T   T
  0.7314697405237295  0.6226775723347866  0.4997074992757319   T   T   T
  0.7314566498969330  0.5537814415116711  0.4997133697073420   T   T   T
  0.7291090770876724  0.4858592882766234  0.5011648118867613   T   T   T
  0.6179612616327071  0.4967229118278879  0.4622820603851965   T   T   T
  0.5518155520313375  0.4761658975086401  0.4631105460280430   T   T   T
  0.5103811068045031  0.5316642952582465  0.4622601371046766   T   T   T
  0.4704101913004309  0.5882394130049862  0.4631116216945659   T   T   T
  0.5103897441086958  0.6447957234655448  0.4622677729911542   T   T   T
  0.5518252828373539  0.7003001063904341  0.4631151471439274   T   T   T
  0.6179689094712498  0.6797369011869357  0.4622718794148356   T   T   T
  0.6835633214199086  0.6574781001391814  0.4631166861262364   T   T   T
  0.6844415930618363  0.5882231898514700  0.4622683678693653   T   T   T
  0.6835601769977950  0.5189756825629499  0.4631217018432282   T   T   T
  0.5699147544963343  0.5319066693572384  0.4268836153053034   T   T   T
  0.5290088290036070  0.5882346691205931  0.4268786227693216   T   T   T
  0.5699334776301708  0.6445479598898755  0.4268825270849708   T   T   T
  0.6361257887069888  0.6230200141362910  0.4268805493518815   T   T   T
  0.6361195297908178  0.5534138590524018  0.4268885080178687   T   T   T
  0.5882276673790353  0.5882214422388046  0.3935387100488366   T   T   T
  0.5294014049549363  0.7693453347828660  0.7058996937967338   T   T   T
  0.7304961196768732  0.4848680217850638  0.4341007613910140   T   T   T
  0.4459692976722743  0.6916297410939185  0.7423746537720470   T   T   T
  0.7744737551760572  0.7235238383442107  0.4731278030321276   T   T   T
  0.8184493828327820  0.5882154205764177  0.7033251432571221   T   T   T
  0.8010926329085852  0.6574092590230740  0.5882521990093437   T   T   T
  0.4020033210897476  0.4529289283608271  0.7033431989674754   T   T   T
  0.6065289145025082  0.5319144655453302  0.8144700180949211   T   T   T
  0.6593574140367175  0.3692939127759001  0.7033248854859774   T   T   T
  0.5882304991916310  0.5882389384268342  0.8456227815984513   T   T   T
  0.5518697222642429  0.4762925525289895  0.3978337189131124   T   T   T
  0.3753494405986435  0.6574120130292453  0.5882207857630698   T   T   T
  0.4566829010281797  0.7693400506342487  0.5882345369212841   T   T   T
  0.3867329333621141  0.6916328679460632  0.6465384755130699   T   T   T
  0.6181956723485162  0.4960084916638448  0.3954964880311890   T   T   T
  0.5171117491497462  0.8071382653092692  0.4731182401926846   T   T   T
  0.7198171670612724  0.7693202393312071  0.5882126347325998   T   T   T
  0.6065389595230963  0.6445716986633518  0.8144712016659426   T   T   T
  0.7422944050497977  0.7001390731897911  0.7059077581540040   T   T   T
  0.7784025546501429  0.5196739720217187  0.4707154458790938   T   T   T
  0.5882256775641445  0.5882224224751091  0.3308468387977824   T   T   T
  0.6361282281146028  0.5534194362552884  0.3619817504298868   T   T   T
  0.6905121563519094  0.7902883291132279  0.6465391215261209   T   T   T
  0.4746694230516694  0.4209723971544445  0.4707069441342491   T   T   T
  0.6361347784845113  0.6230302912952086  0.3619797671465049   T   T   T
  0.6667015194835210  0.6452317928643233  0.7809697298693682   T   T   T
  0.7304941251488487  0.6916012362030249  0.4340986642605664   T   T   T
  0.3644831449602957  0.5534480387977346  0.5299164994440486   T   T   T
  0.7488329038346730  0.7479034348702713  0.5299276068614710   T   T   T
  0.7927512836720768  0.6228139126069498  0.5288424433667714   T   T   T
  0.7122235943332127  0.7479105479068868  0.4707074683168356   T   T   T
  0.4341865252184452  0.4763043160410571  0.4705771413789015   T   T   T
  0.8120157474466546  0.6230427919165847  0.6465446447760886   T   T   T
  0.4642535194743991  0.4285422655014215  0.7057794179471645   T   T   T
  0.5582729271014202  0.6804905111355017  0.7809772786334408   T   T   T
  0.7640969740194196  0.5882192613959190  0.7423773505255167   T   T   T
  0.4020114446774373  0.7235570297653308  0.7033419945482275   T   T   T
  0.5097786756196756  0.6452279446145726  0.3954839298158764   T   T   T
  0.7897188668697167  0.4848695751954780  0.5299089445526219   T   T   T
  0.4930211908572021  0.5191213594989024  0.7786379867847113   T   T   T
  0.7786392630715615  0.5882297935653552  0.4705691467245093   T   T   T
  0.7058966705445477  0.5882014711509458  0.7786373269185312   T   T   T
  0.4642735054453607  0.7479451547682459  0.7057791648653560   T   T   T
  0.7784087520492670  0.6567832868095430  0.4706892725338750   T   T   T
  0.4705588269197861  0.5882165969294996  0.3978220857309142   T   T   T
  0.4459395519935551  0.4849101814642092  0.7423815988749490   T   T   T
  0.7017984138323243  0.7554782121878175  0.7057771623456679   T   T   T
  0.6470437694022052  0.4071549336518677  0.4705550710942253   T   T   T
  0.6243137399667223  0.8118060991114243  0.6465396703274345   T   T   T
  0.7422896526061805  0.4762924735681151  0.7058951756184472   T   T   T
  0.8010875194054280  0.5190625099750569  0.5882310152803376   T   T   T
  0.5521990347226677  0.8118097108621642  0.5299205689486808   T   T   T
  0.8120129826582290  0.5534416341195476  0.6465364410351102   T   T   T
  0.6848742161348111  0.4752704603943050  0.7446052300942710   T   T   T
  0.7017572424578862  0.4209590327203662  0.7057745639663070   T   T   T
  0.6470667602753424  0.7693175660310859  0.4705700455042586   T   T   T
  0.3978107547911451  0.5882561741602559  0.7059161711858526   T   T   T
  0.5293843603186323  0.4071745436065504  0.7059227569607723   T   T   T
  0.5403334225025891  0.5534466215417149  0.8144676089428321   T   T   T
  0.6000309527570200  0.7364073399777763  0.4318518643825264   T   T   T
  0.5818106255663370  0.7902952665705335  0.4707135824870857   T   T   T
  0.6425870478532284  0.7554886790627074  0.7423767403194470   T   T   T
  0.3940905478900411  0.6445652281420955  0.4706978628140885   T   T   T
  0.4912647345531879  0.5882562460201166  0.7809730897106562   T   T   T
  0.4342112956746816  0.7001713580883219  0.4705715030797281   T   T   T
  0.7122113626579244  0.4285131546253194  0.4707107216708101   T   T   T
  0.7740122380710248  0.4960030714075458  0.6476222779883415   T   T   T
  0.6242640378377293  0.3646882511142051  0.6465565794894771   T   T   T
  0.3753392619250749  0.5191038997384213  0.5882505701965574   T   T   T
  0.4509503602727803  0.6452434747158901  0.4318466418069830   T   T   T
  0.4430833324977758  0.4400490134133326  0.5288457560099924   T   T   T
  0.5170917576689835  0.3692901711424026  0.4731414731011510   T   T   T
  0.3867403868958693  0.4848867196991309  0.6465646964729467   T   T   T
  0.6848925262709862  0.7011818094530929  0.7446137680020781   T   T   T
  0.5579081213940287  0.3830405559688882  0.6476274066866352   T   T   T
  0.6549225115512552  0.7934184360874007  0.5876688156199101   T   T   T
  0.7488209051398792  0.4285263670900662  0.5299249249786935   T   T   T
  0.7255264933258544  0.6452238420261505  0.7446129609627671   T   T   T
  0.4136764252299286  0.4614475523364044  0.5876792011512678   T   T   T
  0.3837007311562718  0.6228382696446891  0.6476270635095590   T   T   T
  0.5817929363609975  0.3861815522256786  0.4707186901790451   T   T   T
  0.3580639129198795  0.5882365460033755  0.4731216534814104   T   T   T
  0.4276651747719999  0.4285382996032138  0.6465582863276825   T   T   T
  0.7627843535855405  0.4614238888629545  0.5887953819338140   T   T   T
  0.5106547440149635  0.4614473415589456  0.7446120093626304   T   T   T
  0.4137039032626586  0.7150707222175593  0.5876706401583128   T   T   T
  0.4024534700989790  0.6804903539501296  0.5288478245985041   T   T   T
  0.5518742920627354  0.7001533710307672  0.3978244709125336   T   T   T
  0.5699269010027568  0.6445417314464398  0.3619855976644074   T   T   T
  0.5699151842017904  0.5319024339970483  0.3619859805969554   T   T   T
  0.4921663158488266  0.7720563788925272  0.6476113843222266   T   T   T
  0.4921449787685497  0.4044194910368541  0.6476242887670026   T   T   T
  0.5582516588502130  0.4960213280822663  0.7809787921164771   T   T   T
  0.5215560392646558  0.7934272359884459  0.5887927661996474   T   T   T
  0.4930431984284707  0.6574430829019077  0.7786408823589566   T   T   T
  0.6474382317386057  0.5882467027995945  0.8144638963348161   T   T   T
  0.6843002862737011  0.4044060103318407  0.5288377464433158   T   T   T
  0.6185200216237652  0.3830329395319461  0.5288513303544654   T   T   T
  0.5947024470614217  0.7903081098981701  0.7057652194380376   T   T   T
  0.6246152724919588  0.7001694064544706  0.7786339721013749   T   T   T
  0.4024348426768286  0.4960188356191571  0.5288559813782450   T   T   T
  0.3724908246810955  0.5882557844103168  0.5888078862602556   T   T   T
  0.5946566057460179  0.3861920375667778  0.7057781949160913   T   T   T
  0.6548862890390671  0.3830269280923858  0.5876752914914485   T   T   T
  0.5339119890801590  0.7554848125059804  0.4340885068472912   T   T   T
  0.7823908820138052  0.6445294262134302  0.7057844388510756   T   T   T
  0.6834388410894850  0.5190888389653956  0.3978283733892717   T   T   T
  0.4859981143072589  0.7903047440159414  0.5299039347443125   T   T   T
  0.6245926928523737  0.4763163579477342  0.7786413020231147   T   T   T
  0.7628019200876720  0.7150297619020922  0.5888068270859431   T   T   T
  0.3980525212776288  0.6568141713628503  0.7057752892038411   T   T   T
  0.6000215412264498  0.4400405582818419  0.4318495634335784   T   T   T
  0.3940714001144469  0.5319050469516693  0.4707029840448959   T   T   T
  0.6658034075076728  0.7150425411330378  0.4318522061304567   T   T   T
  0.6834350352261744  0.6573994411137195  0.3978297819295371   T   T   T
  0.5290105169044869  0.5882240805324731  0.3619776161767064   T   T   T
  0.7333601184208154  0.4400254643978496  0.6476211792442174   T   T   T
  0.3980519992546008  0.5197006406851591  0.7057920180235878   T   T   T
  0.5106724185455846  0.7150644849428867  0.7446155550480054   T   T   T
  0.5403465474179691  0.6230731804836955  0.8144727444911176   T   T   T
  0.4746974830536903  0.7554937025686688  0.4706988267247142   T   T   T
  0.5097661808089399  0.5312192100503095  0.3954909012552735   T   T   T
  0.7327996751910537  0.6228025315188479  0.4318438458617913   T   T   T
  0.5215244897974827  0.3830355770780223  0.5888198928580587   T   T   T
  0.5764317453716548  0.4400442260762713  0.7446162750490752   T   T   T
  0.7927478807452434  0.5536674204133992  0.5288385245251398   T   T   T
  0.7744614265992206  0.4529016464735900  0.4731288378519338   T   T   T
  0.3837042055931651  0.5536831997267372  0.6476289773059494   T   T   T
  0.4566465829295681  0.4071649561283315  0.5882293440686984   T   T   T
  0.6843225643533971  0.7720319284291105  0.5288433563660471   T   T   T
  0.6185412577934057  0.7934068961244751  0.5288359323099457   T   T   T
  0.6425569554972849  0.4209767016344710  0.7423928328910754   T   T   T
  0.7740205578741590  0.6804570804224498  0.6476358752637743   T   T   T
  0.4123832649132141  0.5881966360992169  0.4340945873579338   T   T   T
  0.6182060228507552  0.6804534057169672  0.3954920253234464   T   T   T
  0.6904725495179364  0.3861712097474674  0.6465308210211645   T   T   T
  0.5521637494169971  0.3646872048728470  0.5299412000078374   T   T   T
  0.7897196654943758  0.6916041632431084  0.5299252862698763   T   T   T
  0.5339048305171560  0.4209672892175257  0.4341009598982711   T   T   T
  0.4436821208025246  0.5536980634044023  0.7446133298472833   T   T   T
  0.8039824278074398  0.5882316244566467  0.5876775457195954   T   T   T
  0.7255140206846097  0.5312062160530897  0.7446139564368089   T   T   T
  0.6666929087048663  0.5312248808022741  0.7809768889181197   T   T   T
  0.7823794628018751  0.5319018082790359  0.7057820034501089   T   T   T
  0.5579284314237674  0.7934297591141635  0.6476161134514404   T   T   T
  0.4436848818259437  0.6228487121030281  0.7446202995674278   T   T   T
  0.6851932236550125  0.5882326130775638  0.3954901459002574   T   T   T
  0.4859702085424342  0.3861839827093034  0.5299278597998999   T   T   T
  0.5882548242033665  0.8120646112953330  0.5882328853480409   T   T   T
  0.7327962415687989  0.5536530853181848  0.4318453794886407   T   T   T
  0.6594105021644210  0.8071343868744411  0.7033255741436346   T   T   T
  0.4509302124840569  0.5312205464043422  0.4318484085873973   T   T   T
  0.5882177232305467  0.3644517863513678  0.5882352890024198   T   T   T
  0.3644892714877575  0.6230537314037190  0.5299061277821264   T   T   T
  0.4431182106357984  0.7364285575066420  0.5288300010703940   T   T   T
  0.4915935002302798  0.4752726944312772  0.4318440529747256   T   T   T
  0.4276754165013782  0.7479332868912179  0.6465482186052086   T   T   T
  0.7333793421717555  0.7364085414747181  0.6476325793073334   T   T   T
  0.6657946402448345  0.4614311387645004  0.4318531081780841   T   T   T
  0.7197957104502276  0.4071436374147340  0.5882306844477008   T   T   T
  0.5764527272391332  0.7364271950030543  0.7446052129389648   T   T   T
  0.4916130829148994  0.7011902181080267  0.4318431479710449   T   T   T

  0.00000000E+00  0.00000000E+00  0.00000000E+00
  0.00000000E+00  0.00000000E+00  0.00000000E+00
  0.00000000E+00  0.00000000E+00  0.00000000E+00
  0.00000000E+00  0.00000000E+00  0.00000000E+00
  0.00000000E+00  0.00000000E+00  0.00000000E+00
  0.00000000E+00  0.00000000E+00  0.00000000E+00
  0.00000000E+00  0.00000000E+00  0.00000000E+00
  0.00000000E+00  0.00000000E+00  0.00000000E+00
  0.00000000E+00  0.00000000E+00  0.00000000E+00
  0.00000000E+00  0.00000000E+00  0.00000000E+00
  0.00000000E+00  0.00000000E+00  0.00000000E+00
  0.00000000E+00  0.00000000E+00  0.00000000E+00
  0.00000000E+00  0.00000000E+00  0.00000000E+00
  0.00000000E+00  0.00000000E+00  0.00000000E+00
  0.00000000E+00  0.00000000E+00  0.00000000E+00
  0.00000000E+00  0.00000000E+00  0.00000000E+00
  0.00000000E+00  0.00000000E+00  0.00000000E+00
  0.00000000E+00  0.00000000E+00  0.00000000E+00
  0.00000000E+00  0.00000000E+00  0.00000000E+00
  0.00000000E+00  0.00000000E+00  0.00000000E+00
  0.00000000E+00  0.00000000E+00  0.00000000E+00
  0.00000000E+00  0.00000000E+00  0.00000000E+00
  0.00000000E+00  0.00000000E+00  0.00000000E+00
  0.00000000E+00  0.00000000E+00  0.00000000E+00
  0.00000000E+00  0.00000000E+00  0.00000000E+00
  0.00000000E+00  0.00000000E+00  0.00000000E+00
  0.00000000E+00  0.00000000E+00  0.00000000E+00
  0.00000000E+00  0.00000000E+00  0.00000000E+00
  0.00000000E+00  0.00000000E+00  0.00000000E+00
  0.00000000E+00  0.00000000E+00  0.00000000E+00
  0.00000000E+00  0.00000000E+00  0.00000000E+00
  0.00000000E+00  0.00000000E+00  0.00000000E+00
  0.00000000E+00  0.00000000E+00  0.00000000E+00
  0.00000000E+00  0.00000000E+00  0.00000000E+00
  0.00000000E+00  0.00000000E+00  0.00000000E+00
  0.00000000E+00  0.00000000E+00  0.00000000E+00
  0.00000000E+00  0.00000000E+00  0.00000000E+00
  0.00000000E+00  0.00000000E+00  0.00000000E+00
  0.00000000E+00  0.00000000E+00  0.00000000E+00
  0.00000000E+00  0.00000000E+00  0.00000000E+00
  0.00000000E+00  0.00000000E+00  0.00000000E+00
  0.00000000E+00  0.00000000E+00  0.00000000E+00
  0.00000000E+00  0.00000000E+00  0.00000000E+00
  0.00000000E+00  0.00000000E+00  0.00000000E+00
  0.00000000E+00  0.00000000E+00  0.00000000E+00
  0.00000000E+00  0.00000000E+00  0.00000000E+00
  0.00000000E+00  0.00000000E+00  0.00000000E+00
  0.00000000E+00  0.00000000E+00  0.00000000E+00
  0.00000000E+00  0.00000000E+00  0.00000000E+00
  0.00000000E+00  0.00000000E+00  0.00000000E+00
  0.00000000E+00  0.00000000E+00  0.00000000E+00
  0.00000000E+00  0.00000000E+00  0.00000000E+00
  0.00000000E+00  0.00000000E+00  0.00000000E+00
  0.00000000E+00  0.00000000E+00  0.00000000E+00
  0.00000000E+00  0.00000000E+00  0.00000000E+00
  0.00000000E+00  0.00000000E+00  0.00000000E+00
  0.00000000E+00  0.00000000E+00  0.00000000E+00
  0.00000000E+00  0.00000000E+00  0.00000000E+00
  0.00000000E+00  0.00000000E+00  0.00000000E+00
  0.00000000E+00  0.00000000E+00  0.00000000E+00
  0.00000000E+00  0.00000000E+00  0.00000000E+00
  0.00000000E+00  0.00000000E+00  0.00000000E+00
  0.00000000E+00  0.00000000E+00  0.00000000E+00
  0.00000000E+00  0.00000000E+00  0.00000000E+00
  0.00000000E+00  0.00000000E+00  0.00000000E+00
  0.00000000E+00  0.00000000E+00  0.00000000E+00
  0.00000000E+00  0.00000000E+00  0.00000000E+00
  0.00000000E+00  0.00000000E+00  0.00000000E+00
  0.00000000E+00  0.00000000E+00  0.00000000E+00
  0.00000000E+00  0.00000000E+00  0.00000000E+00
  0.00000000E+00  0.00000000E+00  0.00000000E+00
  0.00000000E+00  0.00000000E+00  0.00000000E+00
  0.00000000E+00  0.00000000E+00  0.00000000E+00
  0.00000000E+00  0.00000000E+00  0.00000000E+00
  0.00000000E+00  0.00000000E+00  0.00000000E+00
  0.00000000E+00  0.00000000E+00  0.00000000E+00
  0.00000000E+00  0.00000000E+00  0.00000000E+00
  0.00000000E+00  0.00000000E+00  0.00000000E+00
  0.00000000E+00  0.00000000E+00  0.00000000E+00
  0.00000000E+00  0.00000000E+00  0.00000000E+00
  0.00000000E+00  0.00000000E+00  0.00000000E+00
  0.00000000E+00  0.00000000E+00  0.00000000E+00
  0.00000000E+00  0.00000000E+00  0.00000000E+00
  0.00000000E+00  0.00000000E+00  0.00000000E+00
  0.00000000E+00  0.00000000E+00  0.00000000E+00
  0.00000000E+00  0.00000000E+00  0.00000000E+00
  0.00000000E+00  0.00000000E+00  0.00000000E+00
  0.00000000E+00  0.00000000E+00  0.00000000E+00
  0.00000000E+00  0.00000000E+00  0.00000000E+00
  0.00000000E+00  0.00000000E+00  0.00000000E+00
  0.00000000E+00  0.00000000E+00  0.00000000E+00
  0.00000000E+00  0.00000000E+00  0.00000000E+00
  0.00000000E+00  0.00000000E+00  0.00000000E+00
  0.00000000E+00  0.00000000E+00  0.00000000E+00
  0.00000000E+00  0.00000000E+00  0.00000000E+00
  0.00000000E+00  0.00000000E+00  0.00000000E+00
  0.00000000E+00  0.00000000E+00  0.00000000E+00
  0.00000000E+00  0.00000000E+00  0.00000000E+00
  0.00000000E+00  0.00000000E+00  0.00000000E+00
  0.00000000E+00  0.00000000E+00  0.00000000E+00
  0.00000000E+00  0.00000000E+00  0.00000000E+00
  0.00000000E+00  0.00000000E+00  0.00000000E+00
  0.00000000E+00  0.00000000E+00  0.00000000E+00
  0.00000000E+00  0.00000000E+00  0.00000000E+00
  0.00000000E+00  0.00000000E+00  0.00000000E+00
  0.00000000E+00  0.00000000E+00  0.00000000E+00
  0.00000000E+00  0.00000000E+00  0.00000000E+00
  0.00000000E+00  0.00000000E+00  0.00000000E+00
  0.00000000E+00  0.00000000E+00  0.00000000E+00
  0.00000000E+00  0.00000000E+00  0.00000000E+00
  0.00000000E+00  0.00000000E+00  0.00000000E+00
  0.00000000E+00  0.00000000E+00  0.00000000E+00
  0.00000000E+00  0.00000000E+00  0.00000000E+00
  0.00000000E+00  0.00000000E+00  0.00000000E+00
  0.00000000E+00  0.00000000E+00  0.00000000E+00
  0.00000000E+00  0.00000000E+00  0.00000000E+00
  0.00000000E+00  0.00000000E+00  0.00000000E+00
  0.00000000E+00  0.00000000E+00  0.00000000E+00
  0.00000000E+00  0.00000000E+00  0.00000000E+00
  0.00000000E+00  0.00000000E+00  0.00000000E+00
  0.00000000E+00  0.00000000E+00  0.00000000E+00
  0.00000000E+00  0.00000000E+00  0.00000000E+00
  0.00000000E+00  0.00000000E+00  0.00000000E+00
  0.00000000E+00  0.00000000E+00  0.00000000E+00
  0.00000000E+00  0.00000000E+00  0.00000000E+00
  0.00000000E+00  0.00000000E+00  0.00000000E+00
  0.00000000E+00  0.00000000E+00  0.00000000E+00
  0.00000000E+00  0.00000000E+00  0.00000000E+00
  0.00000000E+00  0.00000000E+00  0.00000000E+00
  0.00000000E+00  0.00000000E+00  0.00000000E+00
  0.00000000E+00  0.00000000E+00  0.00000000E+00
  0.00000000E+00  0.00000000E+00  0.00000000E+00
  0.00000000E+00  0.00000000E+00  0.00000000E+00
  0.00000000E+00  0.00000000E+00  0.00000000E+00
  0.00000000E+00  0.00000000E+00  0.00000000E+00
  0.00000000E+00  0.00000000E+00  0.00000000E+00
  0.00000000E+00  0.00000000E+00  0.00000000E+00
  0.00000000E+00  0.00000000E+00  0.00000000E+00
  0.00000000E+00  0.00000000E+00  0.00000000E+00
  0.00000000E+00  0.00000000E+00  0.00000000E+00
  0.00000000E+00  0.00000000E+00  0.00000000E+00
  0.00000000E+00  0.00000000E+00  0.00000000E+00
  0.00000000E+00  0.00000000E+00  0.00000000E+00
  0.00000000E+00  0.00000000E+00  0.00000000E+00
  0.00000000E+00  0.00000000E+00  0.00000000E+00