Au Pt 
 1.0000000000000000
    26.0000000000000000    0.0000000000000000    0.0000000000000000
     0.0000000000000000   29.0000000000001208    0.0000000000000000
     0.0000000000000000    0.0000000000000000   24.0000000000000000
  85 140
Cartesian
 13.6085081345930448 15.9431038760925592 12.2537485021720265
 17.8491346321862423 11.8321979902168462 14.5216177795170100
  9.3703694963050523 11.8327740522952354 14.5249405132667668
 17.8438133439945474 20.0522103160410374  9.9877957474802823
  9.3679273733296284 20.0496473159326847  9.9890072136177341
 16.4401757343765169 14.3371075941375388  7.6157192881898759
 10.7757260246693090 14.3365270820990318  7.6166397095742484
 10.7774162224011576 17.5429066573270731 16.8940637564616551
 15.0322310445029217 21.6437401888843404 14.5951033850877963
 12.1817449405985663 21.6428154320981463 14.5957813417092073
 15.0326136255806144 10.2393016862676198  9.9153428282088285
 12.1828289196166057 10.2394311523352499  9.9161491284342649
 13.6061700320758305 19.2458670761446307  7.6524747552506112
 13.6115657783640209 12.6383359406025786 16.8562849805556034
  7.9428303401094462 15.9401112130643057 12.2574443142156557
 19.2738791804430782 15.9413689551983424 12.2542100322403567
 15.0221871605031438 16.7907251820720873  7.6558933188537788
 12.1925091636340444 16.7901826289004177  7.6560780363185783
 19.2697889181540347 17.5826346548282970  9.9691795212954979
  7.9443931784259947 17.5803481694289694  9.9712654604114377
 19.2742716694689911 14.2997471822465627 14.5395511388926284
  7.9453651599968218 14.2993731314444208 14.5437800153244936
 13.6074789108464884  9.4454290362497559  7.5933195504197490
  7.9584765255221939 12.6442984500905915 16.8495751505323170
 13.6082844064109185 22.4334471422042405 16.9189213792366751
  7.9557270211756608 19.2344079775840449  7.6656515335075843
 19.2643001586295064 12.6439918065073709 16.8443521782678225
 19.2565592837506507 19.2378663574482260  7.6646984378628051
 17.8448823030689567 16.7755212411745269  7.6360113044147182
  9.3696872693874269 16.7738181487787514  7.6369085798110881
 15.0273616419652143 15.0918390223499443 16.8514622647397729
 17.8514676444072720 15.1059125946488209 16.8719671189810541
 16.4191763193365681 19.2450370786568996  7.6545235664033431
 10.7931400169261220 19.2432189084751357  7.6547440406115603
 16.4262319195443247 12.6384871796684806 16.8541300492610411
 10.7968402840952358 12.6388324136991539 16.8568041659579357
 15.0327436321344869 11.9000525878083891  7.5997886244536303
 12.1831542256674652 11.8998863949086200  7.6004086591161153
 15.0353769279201348 19.9799735776218839 16.9092644660323117
 12.1845801090501205 19.9793124810623688 16.9102626698378842
  9.3715509282286718 15.1052908549075315 16.8757282677089329
 12.1958832469135068 15.0916332631910652 16.8527894416711916
 16.4447471836364976 17.5438990677213233 16.8917347119905585
 13.6111598813838395 17.5427350607619772 16.8704124178866515
 13.6084404441901565 11.0568469294846654 12.2126619218608585
 16.4532376525199631 14.2843359059239710 14.5626701605805327
 10.7666644856610123 14.2842463963204995 14.5648553062335324
 16.4494637836497155 17.6003204978172398  9.9450766239198991
 10.7648742444209624 17.5991413586703196  9.9459613822703137
 13.6085510888303798 19.2089496691907335 14.6003146157446881
 13.6080814589287353 12.6746704553387879  9.9086759577928518
 15.0282759695041097 16.7453469515640982 14.5760273651767776
 13.6061214112485036 20.8290747076742555 12.2974625881344988
 12.1909604799810278 16.7449776807766533 14.5770638864081015
 12.1898446771397708 15.1389435757729807  9.9317488859312810
 13.6080009461028943 14.3382124427432842  7.6376722701467008
 13.6072158814248549 17.5969181402864727  9.9497569355835438
 10.7716898677304265 15.9420174525447997 12.2552408225946685
 16.4452317944732407 15.9426122015674459 12.2536676837722549
 15.0259364967445652 18.4004523540926392 12.2723339327251750
 12.1891762931503695 18.3997683510344885 12.2729981497489629
 15.0270899878996040 13.4856229091915640 12.2355524117038144
 15.0261841472200803 15.1391881282130001  9.9311944671979173
 12.1909203459997695 20.0273526633232066  9.9801626923137938
 13.6099967974750502 14.2886527848559695 14.5581284988126409
 12.1943179320459372 11.8583182204081101 14.5302844639089770
 15.0208881264554552 20.0283092403066405  9.9797708183967604
 16.4413021420439520 11.0348726633381968 12.2183293855923303
 10.7733281256547109 20.8488422264358917 12.2924127190636661
 10.7756114119634603 11.0353024082259665 12.2201321800427749
 16.4389698474047172 20.8506379973986995 12.2911987869779828
 17.8409344517788035 16.7339864550688873 14.5648206296360581
  9.3781326091882562 16.7329106134003815 14.5676652274112168
 17.8381264201224141 15.1489481862724347  9.9430152102209419
  9.3777686333693140 15.1480664022338232  9.9449282474532872
 12.1903056625567068 13.4856771131836695 12.2364194057870534
 10.7928116860131613 12.6970974857730923  9.9263434865060791
 17.8381671634361787 18.3856090511387933 12.2663728702856876
  9.3767889036717307 18.3838451325366918 12.2683251085963736
 17.8394287129211762 13.4985937942469594 12.2421002520118343
  9.3778431586338886 13.4984933563981535 12.2448175531413952
 16.4245834540382667 19.1862670315490149 14.5834718301176185
 16.4233512286803567 12.6971429287189164  9.9248890025481344
 10.7924705999298993 19.1849387908247806 14.5851345440018552
 15.0253224783398132 11.8580093599934457 14.5292138166244165
 12.2201567529746455 10.3669337465290194 16.7312627179943547
 15.0023623256094769 10.3666397407222544 16.7302018277644642
 12.2144725974430006 21.5174236340184812  7.7792894219493860
 14.9959991569532693 21.5184397146952548  7.7789495384546763
 20.4967917947097611 13.5711282339665882 12.2640148614270394
 15.0000767610531476  8.7916318202850885 12.1753097961335239
  8.1100218128357664 20.7210649911508931 12.2638405081961519
  6.7204120869635720 13.5700047572197899 12.2694021293183528
 20.4953546322676345 18.3117949447565245 12.2437905382835286
  6.7195446962558592 18.3093328775906095 12.2465822692090462
 14.9972858799041635 23.0938811947454923 12.3362257970596545
  8.1122148795693079 11.1601807721227537 12.2512558267109828
  9.5012369024470882 21.5083875659948554 14.5415525741445304
 19.1048464145146895 11.1601435031402758 12.2467942414959570
  9.5026106937206141 10.3726846482101376  9.9726598205058785
 17.7129658887231969 21.5108696940409381 14.5392435254713170
 17.7130026915493808 10.3725874765750188  9.9700752006217428
  8.1265962290936820 19.0888835883036023 14.5181455572076334
  8.1271443728680435 12.7910792334502972  9.9964166222327382
 19.0890253439157043 12.7919935177445954  9.9928737763486239
 16.3925191458146635  9.5788526757464609 14.4517595850661422
 10.8267623843032492  9.5795077133880771 14.4537120859586707
 16.3877963297859210 22.3070076907797663 10.0581291291353097
 10.8222456206850222 22.3050463699323629 10.0591488433860352
  9.5037367083517399 19.8838523183449460 16.8027795222328216
 19.1025184149479585 20.7239513674348999 12.2619407440607855
 19.0903805548191201 19.0909727598507111 14.5151585052246439
 20.4781568835621393 18.4047587465491134  5.5627721317671455
 17.7129856385054012 11.9954108824987156  7.7084487198285068
 16.3481088077890711 11.2048209862945125  5.4821691462556394
 10.8702323112465944 20.6720509528576848 19.0294508605626902
 10.8673287177544751 11.2045203649934795  5.4831824680259755
 16.3760800718984036 20.7538462930937477  5.5524895406824371
 10.8349390780410584 20.7522355585961726  5.5528410939989472
 17.7727096847657968 18.3953654614097104  5.5397373292256740
  9.4400342159331672 18.3929590478023393  5.5399580580732968
 16.3836662108057709 11.1289046642170870 18.9563964179309323
 10.8416083930091460 11.1289074348101611 18.9588437823015390
 17.7809279475617465 13.4861534436346258 18.9689188438807292
  9.4445016866212192 13.4859922777263161 18.9731223631322266
 16.3515852165816717 20.6737963529123192 19.0270871395244363
  9.4853704688598146 18.2729548754778364 19.0121886847917629
  9.4820151370138923 13.6044852817013240  5.5004597214304578
  5.3575122189650646 14.3238714374469076 14.5102218450480187
 21.8620185917489387 14.3244027236460791 14.5031102786253712
  5.3566388724034084 17.5539992344815516 10.0065436276220492
 21.8575896379897543 17.5582513416902266 10.0035033574045844
 17.7387069992950757 18.2744657864925841 19.0085953768256175
 13.6108908704559823 20.7028674341609360 19.0241696327149370
 13.6077183357933684 11.1739186406542430  5.4863260415810071
  6.7233536051752560 15.0715394079146350 16.7655856346610754
  6.7218751564581343 16.8060517292711964  7.7505099444363701
 20.4925556126996504 16.8099265880578557  7.7480896862555495
 17.7334750929006688 13.6058399975262976  5.4990092168585738
 20.4993055867043736 15.0717610250732630 16.7598384950965418
 19.1248124982541938 15.8742644727148488 18.9903409907628955
 19.1176206009477418 16.0071189497676514  5.5174450326598761
  6.7385069598549965 13.4770472572738669 18.9521193625887321
 20.4867135907264277 13.4768062537228595 18.9455740207435674
  6.7344744705857584 18.4000423964232027  5.5641216449746027
 19.1323404763396141 20.7347357365996352  5.5798591985958996
  8.0846217719320403 11.1471599028617216 18.9344134998864142
 19.1406030205746447 11.1468699620077984 18.9291678865545343
  8.0786543680127263 20.7310450647198081  5.5805203670288366
 21.8232631429189610 19.1661751141061920  7.7652299324271636
  5.3917252035771970 12.7162319927129648 16.7502101525640335
 21.8307903130061050 12.7157994239776855 16.7421101681858211
  5.3890841289010210 19.1606789847705805  7.7667832951072384
  8.0967234762269946 16.0040329733876554  5.5190034354866340
 14.9548099894889077 23.0508959064834968 19.0189347881479449
 14.9528268281329773  8.8261459126240140  5.4933697079597001
 12.2618819365571134  8.8261045349099554  5.4938579307755315
  6.7376715256228907 10.3862504275047218 16.7327929242383284
 20.4774277776282716 21.4961557865582975  7.7823867576321506
 20.4847860435217584 10.3857499347350952 16.7258841445473188
  6.7331114630699664 21.4916431922496578  7.7831269229657032
 14.9523618908541884 24.6216197308241647 16.8340845398527037
 12.2614621671783137 24.6204234752333697 16.8351575504061373
 14.9525530195807725  7.2577742269942247  7.6799778949131525
 12.2616462211803974  7.2579723025304368  7.6806579163127457
  8.1002572480481003 15.8736618790354793 18.9952684519561430
 12.2639429839715852 23.0498753300520711 19.0201725724040607
 13.6055218801699080 20.7537475163439460  5.5519022472071358
 13.6126389035577517 11.1293847116115732 18.9572339601753335
  5.3566305374188179 15.9391683299284459 12.2583007126979258
 16.3465536606032202 23.8728324362299134 14.5764930883318673
 10.8652815618521466 23.8708080875926356 14.5783911588697297
 16.3477939235332599  8.0101451294873751  9.9354651619933350
 10.8671987134975971  8.0104945274864772  9.9370087340141460
 12.2130893599074781 23.0929744827451557 12.3369223304573641
 13.6049901556692880 22.2888283608746427 10.0640602725032196
 12.2164402680202979  8.7918820062012113 12.1761372080209647
 13.6095930948261721  9.5976579635687962 14.4466719963517800
 13.6127248173498980 15.8924006027170677 18.9674762242551438
 13.6073831807814649 15.9875243523083306  5.5404976712443590
  8.1123355121322884 14.4036980524182923  7.7286225590882163
 12.2214631485309457 13.4825935868933549 18.9693948507492749
 19.1034098356646886 14.4057043082176062  7.7261028841292454
 19.1082300353993340 17.4758327818834438 16.7814414507390843
 13.6059227488592409 23.8778261151845399 14.6076061549689094
 13.6074866339473406  8.0043235804920769  9.9061004600484690
 17.7340972572491182  8.7946572227335160 12.2026110469540185
  9.4826192715044435  8.7951895817149577 12.2056534150098539
 17.7315637369704326 23.0901929878618226 12.3073163679134066
  9.4790013620527382 23.0874520805732431 12.3092057980634646
  6.7206271964001498 16.6872587729493134 14.5070945062301373
 20.4982190241994857 16.6884137202667979 14.5026844601568481
  6.7204850274629289 15.1913793629490268 10.0087756195994366
 20.4953158439806202 15.1939155233882754 10.0048232679176383
  8.1135839163911445 17.4745181106635954 16.7855503693130537
 15.0041126716246538 13.4827121454696108 18.9679225167622825
 12.2157995509619326 18.3986756639671576  5.5401574465221453
 14.9970657855581386 18.3993797868183684  5.5401880289941925
 21.8600506222698066 15.9414974042309936 12.2531000611487730
  6.7223567623716169 11.9478748285318570 14.5228738492361273
 20.4971270666836283 11.9478826583007649 14.5164014514109336
  6.7202625327036714 19.9310496345127390  9.9932865302178495
 20.4916326444245875 19.9347139682073866  9.9918651697643970
  8.0984681847111979  9.5789617787618404 14.4748188268949445
 19.1210258901874752  9.5783924485314689 14.4697887983666611
  8.0941402653753993 22.3018946641499696 10.0401209512592633
 19.1161214136065958 22.3053350354815869 10.0388929184465798
 17.7718863812153494 21.5208727882041480  7.7829516804148318
  9.4386041146684541 21.5179463695548314  7.7837964101896260
 17.7789505997514254 10.3624990294023167 16.7263003529672289
  9.4435678384175752 10.3632431438529427 16.7298027153419433
 10.8884525827665115 22.2894739595181335 16.8170039541195813
 16.3269831974616686  9.5889583438590513  7.6956516631712377
 10.8880428352602330  9.5890506100102737  7.6968911016734696
 16.3281651432238419 22.2914862666705815 16.8148957438762920
 16.3896693468803001 15.9875700761632213  5.5221320017497391
 16.3963010738332784 15.8928591918903219 18.9853256559900991
 10.8249642607273238 15.9864740697589092  5.5225502412433300
 10.8290468830195614 15.8921856429049164 18.9879834420359792
 15.0043869624285726 18.3015831186452296 19.0039333882305890
 12.2198594429761300 18.3009639857387327 19.0050812838441630
 14.9996473775873067 13.5769869406645185  5.5041550025814150
 12.2160145499741812 13.5766807478378375  5.5046019274608549
  9.5028674330633169 11.9948192289899005  7.7104679052298364
 17.7159841411387760 19.8859212387440110 16.7998225808599528
