Pd                                      
   30.5000000000000     
     1.0000000000000000    0.0000000000000000    0.0000000000000000
     0.0000000000000000    1.0952380952381000    0.0000000000000000
     0.0000000000000000    0.0000000000000000    1.0000000000000000
  55
Selective dynamics
Direct
  0.3342538516703694  0.4040638651134754  0.3949509432619297   T   T   T
  0.3748514411718002  0.5528156718843623  0.4462155021555602   T   T   T
  0.3354456007288637  0.4410600643810065  0.5657892252858052   T   T   T
  0.4028105970143187  0.3016451814439620  0.5113267914005570   T   T   T
  0.4665840613029462  0.4824700658877606  0.3178800103633831   T   T   T
  0.4838610259334468  0.3272156156838157  0.3581171586574744   T   T   T
  0.4685135418708001  0.5423457385507501  0.5942749485678587   T   T   T
  0.5495459459226327  0.5679275095408902  0.4410385218445315   T   T   T
  0.5775349781475789  0.3167366499577249  0.5061570339521523   T   T   T
  0.4858123537816639  0.3871115333480273  0.6345139595931324   T   T   T
  0.6169499358953849  0.4284870494758766  0.3866147361089060   T   T   T
  0.6181394932810219  0.4655047514826324  0.5574176924172587   T   T   T
  0.3508991473896487  0.4797410446230453  0.4189210898913979   T   T   T
  0.3653086211875363  0.3504018132486227  0.4524495473242762   T   T   T
  0.4070280613767726  0.3635608426362226  0.3735370967881668   T   T   T
  0.3981415084415185  0.4435146618099938  0.3528119207619123   T   T   T
  0.3306232823935252  0.4222214276921380  0.4804773267018715   T   T   T
  0.4751894885345564  0.4039401593441033  0.3338562176690791   T   T   T
  0.3659244097450706  0.3694633514362943  0.5404080741633428   T   T   T
  0.5323646831276404  0.3186233140326171  0.4308089917753820   T   T   T
  0.3515139984710329  0.4987965026715724  0.5068912313604580   T   T   T
  0.5090437160122858  0.5278774430095630  0.3765533723111221   T   T   T
  0.3997576018751004  0.4934330639022392  0.5831326211867939   T   T   T
  0.4086663699485241  0.4134518683148228  0.6038721999679112   T   T   T
  0.4905843721422922  0.3054226219249583  0.5097201226523781   T   T   T
  0.4617875785562665  0.5641325506392639  0.4426707501948062   T   T   T
  0.5437184190707824  0.4560554516218579  0.3484994043463077   T   T   T
  0.4190443754498119  0.5201128938121343  0.3792283322541466   T   T   T
  0.5526141250313131  0.3761588900190801  0.3692413241990465   T   T   T
  0.4423548542779360  0.3108182400164633  0.4334785685691520   T   T   T
  0.4433537946302730  0.3416436471278421  0.5758059434334389   T   T   T
  0.4200470158588090  0.5509583959078413  0.5215653113047577   T   T   T
  0.6217715416709172  0.4474015681268184  0.4718860084987092   T   T   T
  0.5100247562499804  0.5587546934501625  0.5189136453178752   T   T   T
  0.5333156747660522  0.3494403270587499  0.5731555124607677   T   T   T
  0.5542352774690389  0.4260799528407562  0.5995568217924897   T   T   T
  0.5453499766995576  0.5060098331053143  0.5788248981198630   T   T   T
  0.6008714220864049  0.3707499966843236  0.4454730367116443   T   T   T
  0.5864685588460916  0.5001137145065522  0.4119666995275015   T   T   T
  0.4771831119844861  0.4656328605315899  0.6185450101161866   T   T   T
  0.5870636885196564  0.5192164623302086  0.4999404519461042   T   T   T
  0.6014697362212741  0.3898198634387522  0.5334640524148833   T   T   T
  0.4761976703378313  0.4347786820643574  0.4761901229990547   T   T   T
  0.4045422732131445  0.4192704943652091  0.4351853472881232   T   T   T
  0.4250376377593476  0.4943537726074662  0.4610738126959826   T   T   T
  0.4391627948732447  0.3675723377701909  0.4939341556240680   T   T   T
  0.4051540138618234  0.4379498931727072  0.5214185808144454   T   T   T
  0.4800518807866552  0.3804763169519469  0.4166012030132468   T   T   T
  0.4713389320855214  0.4588296460352349  0.3962925152271241   T   T   T
  0.5478341241203744  0.4502982505300946  0.5171843255409818   T   T   T
  0.5273428343250082  0.3752083868961090  0.4913179204723738   T   T   T
  0.5132166657645634  0.5019841582781720  0.4584515533058589   T   T   T
  0.4723204277784950  0.4890723152212283  0.5357922002316233   T   T   T
  0.5472133336647577  0.4315953265002130  0.4309762736155549   T   T   T
  0.4810416071456565  0.4107227452450534  0.5561060722631495   T   T   T
 
  0.00000000E+00  0.00000000E+00  0.00000000E+00
  0.00000000E+00  0.00000000E+00  0.00000000E+00
  0.00000000E+00  0.00000000E+00  0.00000000E+00
  0.00000000E+00  0.00000000E+00  0.00000000E+00
  0.00000000E+00  0.00000000E+00  0.00000000E+00
  0.00000000E+00  0.00000000E+00  0.00000000E+00
  0.00000000E+00  0.00000000E+00  0.00000000E+00
  0.00000000E+00  0.00000000E+00  0.00000000E+00
  0.00000000E+00  0.00000000E+00  0.00000000E+00
  0.00000000E+00  0.00000000E+00  0.00000000E+00
  0.00000000E+00  0.00000000E+00  0.00000000E+00
  0.00000000E+00  0.00000000E+00  0.00000000E+00
  0.00000000E+00  0.00000000E+00  0.00000000E+00
  0.00000000E+00  0.00000000E+00  0.00000000E+00
  0.00000000E+00  0.00000000E+00  0.00000000E+00
  0.00000000E+00  0.00000000E+00  0.00000000E+00
  0.00000000E+00  0.00000000E+00  0.00000000E+00
  0.00000000E+00  0.00000000E+00  0.00000000E+00
  0.00000000E+00  0.00000000E+00  0.00000000E+00
  0.00000000E+00  0.00000000E+00  0.00000000E+00
  0.00000000E+00  0.00000000E+00  0.00000000E+00
  0.00000000E+00  0.00000000E+00  0.00000000E+00
  0.00000000E+00  0.00000000E+00  0.00000000E+00
  0.00000000E+00  0.00000000E+00  0.00000000E+00
  0.00000000E+00  0.00000000E+00  0.00000000E+00
  0.00000000E+00  0.00000000E+00  0.00000000E+00
  0.00000000E+00  0.00000000E+00  0.00000000E+00
  0.00000000E+00  0.00000000E+00  0.00000000E+00
  0.00000000E+00  0.00000000E+00  0.00000000E+00
  0.00000000E+00  0.00000000E+00  0.00000000E+00
  0.00000000E+00  0.00000000E+00  0.00000000E+00
  0.00000000E+00  0.00000000E+00  0.00000000E+00
  0.00000000E+00  0.00000000E+00  0.00000000E+00
  0.00000000E+00  0.00000000E+00  0.00000000E+00
  0.00000000E+00  0.00000000E+00  0.00000000E+00
  0.00000000E+00  0.00000000E+00  0.00000000E+00
  0.00000000E+00  0.00000000E+00  0.00000000E+00
  0.00000000E+00  0.00000000E+00  0.00000000E+00
  0.00000000E+00  0.00000000E+00  0.00000000E+00
  0.00000000E+00  0.00000000E+00  0.00000000E+00
  0.00000000E+00  0.00000000E+00  0.00000000E+00
  0.00000000E+00  0.00000000E+00  0.00000000E+00
  0.00000000E+00  0.00000000E+00  0.00000000E+00
  0.00000000E+00  0.00000000E+00  0.00000000E+00
  0.00000000E+00  0.00000000E+00  0.00000000E+00
  0.00000000E+00  0.00000000E+00  0.00000000E+00
  0.00000000E+00  0.00000000E+00  0.00000000E+00
  0.00000000E+00  0.00000000E+00  0.00000000E+00
  0.00000000E+00  0.00000000E+00  0.00000000E+00
  0.00000000E+00  0.00000000E+00  0.00000000E+00
  0.00000000E+00  0.00000000E+00  0.00000000E+00
  0.00000000E+00  0.00000000E+00  0.00000000E+00
  0.00000000E+00  0.00000000E+00  0.00000000E+00
  0.00000000E+00  0.00000000E+00  0.00000000E+00
  0.00000000E+00  0.00000000E+00  0.00000000E+00
