Ir 
60.0000000000
1    0    0
0    1    0
0    0    1
Ir 
309
Selective dynamics
Direct
0.422135275907346   0.380469789798577   0.215408660636612   T T T
0.354594446511082   0.375593732240678   0.227354039096203   T T T
0.387878946824027   0.403248870635513   0.231211878389232   T T T
0.396601892043781   0.351241460343455   0.236969290872911   T T T
0.452735915730756   0.401094196625635   0.239603801423338   T T T
0.380626404182948   0.444551679624676   0.243354195671392   T T T
0.442493530370873   0.353717930854131   0.244051933709201   T T T
0.355316792866257   0.338349570126691   0.249989864253763   T T T
0.348534814506796   0.413872201891081   0.250250450716772   T T T
0.303966414622546   0.410724797709188   0.252308221782082   T T T
0.421712024467003   0.42972909825977   0.253814531340202   T T T
0.48519198294801   0.358163971692179   0.255695838170993   T T T
0.358919327666082   0.47948877645427   0.25583514007774   T T T
0.416142457488831   0.38529590306454   0.258157537349158   T T T
0.390766006893727   0.313996271722644   0.263275438094406   T T T
0.331578424030482   0.376022573712068   0.265771968072466   T T T
0.374673198369673   0.374880731163439   0.266175476936866   T T T
0.315008467753827   0.45123177104224   0.267340213752751   T T T
0.382228609515621   0.272637042715137   0.272984335394715   T T T
0.38566838736629   0.414703849906128   0.275128296511554   T T T
0.349043024322394   0.302650838199843   0.275601454948609   T T T
0.31998226187378   0.335373501065187   0.276771895939258   T T T
0.455738927289606   0.380861601741164   0.277301585188369   T T T
0.460957023924133   0.427703914669787   0.278164109358528   T T T
0.413872077472462   0.347160526991601   0.279052174831368   T T T
0.355199918761097   0.444818329796509   0.281879760979834   T T T
0.397821601355773   0.456928421389643   0.28254947286112   T T T
0.45682745706623   0.337116842653818   0.283165868462987   T T T
0.293633788568423   0.383583400931144   0.285607647325776   T T T
0.500640603251862   0.333292708291064   0.288225225448609   T T T
0.325999135219855   0.414029129049444   0.2890116787808   T T T
0.377608196433111   0.499690182532466   0.289867022304757   T T T
0.497447403126273   0.38394995846456   0.289876577515225   T T T
0.457645149141754   0.470918527087766   0.291531253356287   T T T
0.370228987995129   0.340877718952678   0.291573155532883   T T T
0.284837738236807   0.426908501048918   0.291700706596444   T T T
0.335964634662048   0.48474794097928   0.291991766173387   T T T
0.425066409953885   0.40858817909457   0.292504670905724   T T T
0.423530039811681   0.306045895238384   0.294821917769847   T T T
0.426613656469508   0.540447699872326   0.29576652787866   T T T
0.30941075999641   0.296506306328278   0.296739622767381   T T T
0.472891765873513   0.298837484014404   0.296780641297531   T T T
0.348779133753017   0.266389947500467   0.300271293606566   T T T
0.418178247490625   0.489393844960446   0.303372368898654   T T T
0.286965461745244   0.343825247719749   0.304184960071538   T T T
0.358340267673905   0.392805935539542   0.305521451495523   T T T
0.39722838225165   0.3773293003922   0.306533273503547   T T T
0.379592052203364   0.300426942832412   0.307146706420042   T T T
0.457300929649548   0.512031131401296   0.307531623883601   T T T
0.407912984746342   0.265790806822911   0.307568830351912   T T T
0.326011117523426   0.36456026324692   0.309826516224305   T T T
0.386074556943735   0.539041097692731   0.310922329647686   T T T
0.306548823139759   0.255797801499038   0.3117915118317   T T T
0.317348083665692   0.451104774042037   0.312099192855645   T T T
0.429298261441626   0.445902925789279   0.31327528189577   T T T
0.437354629916783   0.364954548478555   0.313309866452063   T T T
0.345591155128536   0.522540430198324   0.313530875987908   T T T
0.463529967132492   0.401916904976199   0.314626291930267   T T T
0.338507082079914   0.322747145661235   0.315190638198478   T T T
0.389364974288223   0.426442292317712   0.316757225554322   T T T
0.368715007216077   0.464827381076598   0.316784679405918   T T T
0.265461179955579   0.379753057160755   0.317885294796156   T T T
0.480495544969145   0.356373239236916   0.318361353110887   T T T
0.444878688440142   0.238786383395734   0.320024166652966   T T T
0.473378476419152   0.443382168602208   0.32218042982737   T T T
0.488543043415675   0.484883722767857   0.322291773368178   T T T
0.405172931237449   0.335846034609754   0.322425947086894   T T T
0.304969512731598   0.403868938213217   0.325322101911093   T T T
0.494278745133907   0.528353426068918   0.325388447514745   T T T
0.451290393631278   0.324700284010277   0.325458120022707   T T T
0.444741177310059   0.281590243749539   0.325955626516261   T T T
0.455418903863631   0.550527411564545   0.328511255014703   T T T
0.487967172000523   0.272580238052697   0.329178206059187   T T T
0.497179428357427   0.316441088944889   0.329556416791604   T T T
0.414677885055407   0.564148291475434   0.332010451505421   T T T
0.347065367641648   0.426682368298827   0.332035985350297   T T T
0.366101008340574   0.353265175356554   0.332829575905076   T T T
0.378878643251525   0.503179226732433   0.333665838150765   T T T
0.421365661336964   0.519796314369951   0.333725556657749   T T T
0.330422646909767   0.284114254409242   0.334572157858531   T T T
0.281565048634178   0.438989621631393   0.334668315369749   T T T
0.423717363994262   0.404374881164979   0.334697164034793   T T T
0.500712222442336   0.39189343576255   0.334812006007539   T T T
0.299368761901363   0.317144144634729   0.335729076076348   T T T
0.447219236780484   0.479516275656034   0.336012903948055   T T T
0.336236338630163   0.48660362384643   0.336434521365973   T T T
0.527319614127085   0.472008742172046   0.336725718506628   T T T
0.374035599455638   0.266126049313627   0.337582468894595   T T T
0.261421594698949   0.341436446427608   0.340740374654719   T T T
0.407420894654431   0.297421339811147   0.341837508282543   T T T
0.405025398967832   0.469536932053525   0.342655808475674   T T T
0.298103798867274   0.364135985972221   0.34412181812435   T T T
0.517446378667629   0.353060310327654   0.344258103243443   T T T
0.379911873411643   0.393483821385407   0.344791341037369   T T T
0.51176609672639   0.433160304041133   0.346448589137419   T T T
0.363635165115482   0.308004566528756   0.347690503662415   T T T
0.337209238651648   0.385227874797162   0.347983232253995   T T T
0.289869123144901   0.275117220795191   0.348718341089816   T T T
0.415928851175167   0.254248374830164   0.34888686369015   T T T
0.457495385054538   0.375961036466464   0.349718007069024   T T T
0.323367695184449   0.244172146088047   0.350048702428756   T T T
0.463487267071197   0.515838292365203   0.353171044763736   T T T
0.412844783189887   0.36618777390324   0.354649221143333   T T T
0.27213775784144   0.399748763395323   0.355112334166715   T T T
0.438395378747719   0.441645873711441   0.35668889198926   T T T
0.388778853343349   0.539197130085024   0.357152557825074   T T T
0.318080764953597   0.452651029156191   0.357324097570697   T T T
0.331496281361709   0.339388640769196   0.357625916652258   T T T
0.473107925610994   0.416498021257382   0.358133169158303   T T T
0.459530350032689   0.255883286185972   0.358332253336859   T T T
0.440461603151543   0.217180191480551   0.358408335690598   T T T
0.469406399528362   0.299143628752513   0.358483776047511   T T T
0.505849975266249   0.501789268539227   0.359349744061826   T T T
0.364542114095035   0.459097487125931   0.360441566975131   T T T
0.347136059404429   0.52346867219165   0.36059032122237   T T T
0.480412835861311   0.462725241789144   0.361087879680151   T T T
0.397211592264649   0.429299428892321   0.36113022861826   T T T
0.479477962752194   0.341302167563635   0.362776414595587   T T T
0.435179901894604   0.329114204787913   0.364949432033796   T T T
0.529917982077038   0.392023452841324   0.367118371379149   T T T
0.432202132020147   0.544457562246606   0.36821693130572   T T T
0.392146411438911   0.330489347945687   0.36990082719115   T T T
0.426486720226701   0.499447199200323   0.371709869000862   T T T
0.310901512217574   0.413235636502975   0.372065645492588   T T T
0.316947644624752   0.29995395873083   0.372768399436732   T T T
0.276732674667381   0.315797391475674   0.37335700148121   T T T
0.348939778812403   0.270460922248181   0.373779113826548   T T T
0.355473650539755   0.418029497628685   0.374467123959704   T T T
0.364663923651506   0.363746763104577   0.374972932056404   T T T
0.433259580881862   0.39969728028071   0.375933480651057   T T T
0.380986254046202   0.498898450936309   0.376043872146402   T T T
0.384546085779685   0.24279945549588   0.376660400110235   T T T
0.432252859781964   0.285664751796967   0.376694960832467   T T T
0.273962858383934   0.439267720760962   0.37732755527856   T T T
0.506846317161703   0.312586747752907   0.379172158258224   T T T
0.520763425542465   0.464230453352471   0.379500640613903   T T T
0.273504243356603   0.359866662635398   0.380118356789756   T T T
0.337024313030544   0.485428640846412   0.380479170071827   T T T
0.48949498764352   0.381208933760613   0.380709366831297   T T T
0.388554613374301   0.287267786395598   0.380884999062142   T T T
0.492002565159467   0.270541372043245   0.383584887836847   T T T
0.317270198772562   0.37276410891396   0.385991854430202   T T T
0.402203376589498   0.463658245299181   0.386676309375313   T T T
0.524815732891402   0.353324648044875   0.386902796872207   T T T
0.306728895658779   0.260252058459021   0.387325695506917   T T T
0.50658971849479   0.421980865203674   0.388582836242061   T T T
0.392077865661269   0.396201215157172   0.388981844360733   T T T
0.3538154815799   0.316900424114242   0.389224587816239   T T T
0.427863223605556   0.244109936136259   0.389859648668718   T T T
0.475929469665886   0.4967490887333   0.389941908900719   T T T
0.363158938173228   0.552926300141323   0.390503364534865   T T T
0.451731786095176   0.360891849563316   0.390845437324468   T T T
0.470178757753767   0.231263718489421   0.392067822679702   T T T
0.445738539363096   0.464338278869325   0.392702702740072   T T T
0.296760243338871   0.47407958121678   0.392797653613646   T T T
0.313725529901551   0.51844409857703   0.397227714697763   T T T
0.277246121648337   0.400266148501061   0.397721066656203   T T T
0.459928205496406   0.314370052878   0.398760269249048   T T T
0.401681873299604   0.530022423003624   0.398921221883626   T T T
0.40881733892868   0.357982069096456   0.400155306714443   T T T
0.330621417275912   0.443962946167176   0.400601656610178   T T T
0.463373067991588   0.417462260291884   0.400866184682921   T T T
0.31271623456747   0.332511991136897   0.400913058882987   T T T
0.420032492520354   0.429602168185847   0.40429319051232   T T T
0.416741170932359   0.316041691985523   0.404382344317208   T T T
0.485659313323576   0.455992478188653   0.404639241106134   T T T
0.446713044959604   0.526213584743772   0.406038027920966   T T T
0.352531080443403   0.389636877602887   0.407320800288166   T T T
0.356286382010069   0.514160806368504   0.407766271617485   T T T
0.255989864954898   0.466289914564574   0.408110578555688   T T T
0.489659713168881   0.343231042717666   0.409156165074686   T T T
0.366383646858641   0.470423828525739   0.410058729748556   T T T
0.273640685588395   0.507073532666307   0.410252172615704   T T T
0.45718912536384   0.270903231850014   0.41063907861349   T T T
0.290205996668727   0.29522087109558   0.410870578050118   T T T
0.332753683759771   0.285863202493488   0.412403644720053   T T T
0.264636164578851   0.330968868675039   0.412649414836722   T T T
0.369338089556886   0.261955728275931   0.412729260422106   T T T
0.420542823452867   0.492771289989141   0.41398443241196   T T T
0.517373163317335   0.388025534890531   0.414145104872058   T T T
0.368729371735715   0.348057740982057   0.415146404533582   T T T
0.375997485523854   0.427905120228004   0.415769819059615   T T T
0.512427658750809   0.489437177883606   0.416409959412135   T T T
0.24670688567699   0.424064150192422   0.417434961425793   T T T
0.411625299630771   0.273990582109368   0.417640604364801   T T T
0.398163662825179   0.229295719362928   0.418129048858475   T T T
0.288525290140621   0.438430990953255   0.418362673449622   T T T
0.432169897810444   0.38958800993979   0.418607309831387   T T T
0.494403101318653   0.29691127118897   0.418760884953651   T T T
0.24736622397477   0.374595487209352   0.419186434205656   T T T
0.315003861345389   0.404640647449156   0.420679261200822   T T T
0.526437212711628   0.446485138903867   0.420965022551897   T T T
0.289957282549352   0.366102972200234   0.420968310118596   T T T
0.487327432293877   0.524927025598814   0.422260712115886   T T T
0.441050043171321   0.218580431772585   0.422621456471793   T T T
0.379113864549254   0.304165599783621   0.422642124456241   T T T
0.326857574902832   0.484098022354938   0.423896690648036   T T T
0.332904852305101   0.54783910260276   0.424672993852468   T T T
0.474584531611796   0.38084356084425   0.425524242599432   T T T
0.462141142245362   0.488465501709243   0.429882203478272   T T T
0.444915739945282   0.346345339393532   0.431113675511549   T T T
0.387983139616893   0.384203349693881   0.431912452119912   T T T
0.376558805530716   0.544703988696185   0.432434879740417   T T T
0.491894278112312   0.420885041629096   0.433011679863246   T T T
0.451235060623295   0.44499847939386   0.433872516206805   T T T
0.477220721367378   0.240040979331989   0.434225590596824   T T T
0.402143505641727   0.45920426882599   0.436202648844249   T T T
0.330203489328369   0.364886670022178   0.436609335716649   T T T
0.341654936334232   0.321086994939084   0.436754580713436   T T T
0.385795534984368   0.500252716130267   0.437723780379154   T T T
0.441281160691697   0.302193677164065   0.438412506382851   T T T
0.286097154868481   0.476913741211196   0.43880359253888   T T T
0.35881774259002   0.229485272204059   0.439316205763139   T T T
0.418125104051057   0.531905638451979   0.440492395359641   T T T
0.303530270385773   0.518001423839811   0.441465636462486   T T T
0.274858620480558   0.401299217623806   0.442020952113234   T T T
0.403464509912321   0.336406368448569   0.442078953059806   T T T
0.299499922236942   0.330130601574694   0.442173026325553   T T T
0.323040881933721   0.445173366677115   0.444835589771022   T T T
0.412114824843617   0.417790300766626   0.445121066548699   T T T
0.493352719678086   0.463028239527574   0.445878512195099   T T T
0.506872781459857   0.359831050269349   0.446283394651417   T T T
0.436656785331294   0.25489666935474   0.447408654002558   T T T
0.352678652707875   0.407633602585008   0.447807442654612   T T T
0.267213893177972   0.302566104981224   0.44847458067774   T T T
0.478611605731331   0.324680907264247   0.449101997731897   T T T
0.355341090068293   0.279919236104864   0.45031186435629   T T T
0.346499693015806   0.513875904945062   0.450587328160973   T T T
0.310604030489965   0.289261358399486   0.450808314609584   T T T
0.259594370159424   0.346476322626723   0.452770732235294   T T T
0.474438263809627   0.278761070442461   0.453508577002054   T T T
0.391168333311626   0.254370417942861   0.453785624588481   T T T
0.35849297632465   0.468536896768939   0.454387051723155   T T T
0.533505869024315   0.475179671123854   0.45460038957989   T T T
0.452621959587939   0.404456746359045   0.455993928727722   T T T
0.459112704068967   0.523155742522927   0.45629675034616   T T T
0.427132548174417   0.492519953208633   0.456745442425145   T T T
0.414377596092038   0.218034659987448   0.457058875285668   T T T
0.421116506390845   0.373910626770775   0.457817753010592   T T T
0.366640632462951   0.355231036591273   0.457856776007863   T T T
0.499362970716192   0.503652978502311   0.458689022631044   T T T
0.403448074102893   0.295564925987785   0.458773548000844   T T T
0.307316976883996   0.558184501624306   0.459031680371974   T T T
0.279481681154645   0.44027834836542   0.461892227209556   T T T
0.241206016623034   0.384275006131816   0.463052591537054   T T T
0.520368790790859   0.43315823811119   0.464396074864268   T T T
0.311166205976548   0.40919787988985   0.464764618320828   T T T
0.350192294047114   0.554913439145565   0.466029793449475   T T T
0.29566857786836   0.367910571288292   0.466111094445092   T T T
0.31818781246065   0.483561858072444   0.467986788371865   T T T
0.466016424459103   0.363191531087063   0.468097643859845   T T T
0.494938607565127   0.396395384708252   0.468901668398739   T T T
0.429910379953232   0.451232339729553   0.471594239811343   T T T
0.384235329298633   0.43612366564101   0.472183303735813   T T T
0.383829624268458   0.526033158022272   0.472349245959957   T T T
0.474171644718922   0.437161335916405   0.473154021758954   T T T
0.36829970007625   0.315326972331178   0.473974589646744   T T T
0.46492419420511   0.480800230341823   0.47520460305626   T T T
0.438401941321809   0.327990855633487   0.475276227780398   T T T
0.327963737463842   0.334761789644422   0.47596821022825   T T T
0.347679574301916   0.247158626723798   0.47715576452534   T T T
0.393118207411552   0.479102780829867   0.478815902049983   T T T
0.38143875184556   0.390360003936299   0.478999378869868   T T T
0.336984885710464   0.378442881896992   0.479937676409818   T T T
0.438492548031964   0.283382251463465   0.480811493780839   T T T
0.285946729857912   0.324783517386517   0.483441782706905   T T T
0.320368185639637   0.524877719040129   0.483962452923815   T T T
0.50122180718832   0.341084655576897   0.484681189298712   T T T
0.42527901392918   0.526592220664872   0.484828871204892   T T T
0.400424955719994   0.347478361300432   0.485790267087187   T T T
0.273461596461881   0.402850670020844   0.48665367598251   T T T
0.334154373469   0.289136652187125   0.487296686263202   T T T
0.418900769184503   0.411893808963209   0.487406187312506   T T T
0.476075587784687   0.305271104935898   0.488226519474798   T T T
0.504519551652919   0.466465467164108   0.488370700773875   T T T
0.347630940765929   0.420004202450751   0.489531413915202   T T T
0.312996812907353   0.445972238234584   0.489836340501403   T T T
0.354280047342584   0.496734985177838   0.490386733906888   T T T
0.3775453109748   0.275519874581742   0.490391693457009   T T T
0.262947598269662   0.360589040746253   0.494508744994652   T T T
0.434712629334517   0.372615970330164   0.498173862510247   T T T
0.324158194912139   0.565247355512132   0.498943061122342   T T T
0.460816193728353   0.406823110921811   0.501392477423148   T T T
0.430603228458035   0.486986112179494   0.501715723001719   T T T
0.360553706489403   0.349086765915975   0.501921493254798   T T T
0.403839008438401   0.30821663813965   0.503059402525594   T T T
0.501660570104557   0.423180664603076   0.503810019938707   T T T
0.364560839317974   0.457274787335962   0.505430261142469   T T T
0.357504743496487   0.537397601353267   0.505814128151045   T T T
0.49151816508476   0.377220430140516   0.507908374334145   T T T
0.307922265518314   0.359919180652019   0.508249141302566   T T T
0.311608512454995   0.404488762368269   0.508857077169722   T T T
0.464852255429084   0.342370683202513   0.508874414879268   T T T
0.4534745842886   0.449517919624455   0.509477180324836   T T T
0.409028325849188   0.450272902730864   0.510322970357308   T T T
0.392381039493244   0.508285513783842   0.511284872371112   T T T
0.316704964975742   0.317638305284945   0.515192175492388   T T T
0.382808759607532   0.417026451854459   0.515285284416256   T T T
0.360030350445053   0.307533722558612   0.517180417875783   T T T
0.44468561432385   0.304414794783218   0.518355442219577   T T T
0.395540773449952   0.375778841234303   0.519395929045013   T T T
0.351044663700838   0.386831181936799   0.52128900189129   T T T
0.424248750166261   0.341833115844376   0.52611466957013   T T T
0.276660035341839   0.385480122695796   0.52712919037405   T T T
0.425576945632978   0.408761957669365   0.529487767300329   T T T
0.455930835129256   0.376863043893366   0.535282976605951   T T T
0.382982078760776   0.337751558715458   0.537721097375775   T T T
0.339378354676304   0.346115595197432   0.53920818563175   T T T
0.315347263621045   0.381640691143763   0.546277381819394   T T T
