Pt Au 
 1.0000000000000000
    26.0000000000000000    0.0000000000000000    0.0000000000000000
     0.0000000000000000   29.0000000000001208    0.0000000000000000
     0.0000000000000000    0.0000000000000000   24.0000000000000000
 140  85
Cartesian
 20.3410220541958893 18.3031678557124913  5.6596250108017063
  6.8743576390363321 13.5768496894957380 18.8592597555509087
 20.3538078485428571 13.5755020404505391 18.8510277895729246
  6.8730427201425641 18.2970862172718398  5.6578952568048653
 18.9761181062597615 20.6662060456975496  5.6777320742551884
  8.2389952515422920 11.2156534823243952 18.8400505728259802
 18.9891003377639542 11.2144253368009839 18.8344821840989987
  8.2352484917680542 20.6609477193732083  5.6749191021881469
 21.7043777854960105 19.0751664952092206  7.8929589205441095
  5.5079828765829753 12.8064091230132817 16.6280345332505171
 21.7147866980269448 12.8036980472485542 16.6179733021701246
  5.5081528843389220 19.0680778515427249  7.8911256955559894
 14.9752490468326229 22.8811295423903260 18.9220866211332961
 12.2465637203938389 22.8797448709690272 18.9252202006328574
 14.9719681704627092  8.9917053775923712  5.5904910512764392
 12.2437888707980402  8.9919045652283689  5.5901658602139106
  6.8722031065970466 10.4450857161201220 16.6093494767143319
 20.3391397158364313 21.4380215032276631  7.9113371347959829
 20.3498668277648349 10.4427228527560789 16.6014399046277994
  6.8702645796322299 21.4319635835596074  7.9082672446997062
 14.9699955156590665 24.4755792937147127 16.7079169507768590
 12.2411700338481371 24.4733768651286105 16.7106787165526001
 14.9702108477472482  7.4016097957683016  7.8070435756435916
 12.2422357546020919  7.4023902140956856  7.8070807381664276
  8.1201006943206622 15.9338830970006260 19.0165246222258233
 19.0978863438776436 15.9438625198074106  5.4985983810150314
  8.1189180197675430 15.9401547564803661  5.4979540963252935
 19.1081046980093419 15.9338070028320207 19.0093650317238065
 16.3978411348894397 20.6233832279395912 19.0449022478413710
 16.3926893001451646 11.2507211663798294  5.4635374384417776
 10.8277945936245015 20.6209777503770475 19.0498500921517753
 10.8246370512695105 11.2508850106771767  5.4631478071494177
 16.3116713931493820 20.7682026598631815  5.5345428001135257
 10.8996225935135591 20.7655840866032548  5.5326824022432497
 17.6904207899689325 18.3485987742675896  5.3822687065688362
  9.5239100890366792 18.3452949409546946  5.3801548993493498
 16.3229027474641413 11.1159508427679636 18.9742862256977318
 10.9054452866750893 11.1161799305796727 18.9766374883401170
 17.7019308420719241 13.5314016490636924 19.1267865134445856
  9.5266693865378773 13.5317408669879438 19.1318518492073402
  9.4634330834910276 18.2834716598352358 19.0496391370983318
 17.7568160284201255 13.5906872431405983  5.4627678657640084
  9.4611867523762516 13.5895804987019986  5.4626867602845683
  5.3330476860785057 14.3605298966722863 14.4617951351958176
 21.8858671365911945 14.3590772201891586 14.4530582130390393
  5.3343321581615557 17.5150823060077805 10.0577033932231075
 21.8802457600310696 17.5194619684729176 10.0564603715929923
 17.7642299501322292 18.2850226893776870 19.0439242466537131
 13.6128614895365043 20.6047927824345365 19.1815607188785826
 13.6086786684208114 11.2676699171435306  5.3283422887910525
  6.6208006844084535 15.2243918672918568 16.7770874296796251
  6.6219085582176103 16.6509693516227202  7.7404573709015887
 20.5938553931106583 16.6555701930824078  7.7399800050355942
 20.6028823294427319 15.2231505305128536 16.7695174506051643
 13.6055723914307620 20.7802364252203269  5.5155097370554094
 13.6141903297382054 11.1047747661861216 18.9913210589530870
  5.3121924035730022 15.9380201981139837 12.2598307304737641
 21.9041807725936692 15.9391798926839616 12.2545095834585247
  6.6192373011016965 11.8911897349232838 14.3832814786662446
 20.5985431234855376 11.8890406224881229 14.3755298349690470
  6.6189351974379909 19.9869971270499320 10.1345413465312877
 20.5919149982992060 19.9917714792923817 10.1360092780333009
  8.1166133035576618  9.5433918364167969 14.4237125347031530
 19.0999464395440732  9.5402153069706372 14.4192196485301540
  8.1131939481011219 22.3390447887712433 10.0926762494682141
 19.0938785967580955 22.3449381730615855 10.0933986882662659
 17.6881366660757813 21.6863738943359046  7.7780352720223629
  9.5207815917500529 21.6821774869613257  7.7766046585343709
 17.6979263290241029 10.1986332070474095 16.7337215047138130
  9.5244477451898177 10.2003419408803033 16.7365592685329005
 10.7041309186775777 22.2991668802558998 16.8279772358565154
 16.5102861030029793  9.5754374665604800  7.6878944235535238
 10.7042478538133281  9.5766722790807322  7.6877178055299975
 16.5123805569928734 22.3030965146396341 16.8228382710493314
 16.3825573393830730 15.9565540780073452  5.3089122248112552
 16.3908975620578978 15.9207380168882562 19.1967662307431830
 10.8349356017603622 15.9554251830628164  5.3081924027044458
 10.8380401071323451 15.9200618473217101 19.2006185338966802
 15.0294562098603190 18.2760864155664535 19.2149360174314090
 12.1988899136753801 18.2750726337927283 19.2171058906357040
 15.0235411453894905 13.5985407490674888  5.2909095994163478
 12.1948093743543353 13.5984698615149089  5.2907053357740219
 14.9668836416566471 18.4087407296239682  5.3272920141109763
 12.2478645788742817 18.4076996419906997  5.3264341737914664
 14.9756209870933432 13.4734497913924773 19.1787123909802943
 12.2532164443324696 13.4732791119182771 19.1803892879836866
 16.3883282524748779 23.8778258073188354 14.5254994029460978
 10.8184314452573549 23.8728604612575737 14.5301036723024861
 16.3895601837825247  8.0063850254930511  9.9876318607396470
 10.8223412733414008  8.0086460724281832  9.9877170187856876
 12.1869742265149448 23.2888196222901307 12.2487406382448221
 13.6026787203334809 22.5477077565331534  9.9766417734101491
 12.1924500998394407  8.5999418260011051 12.2656896786430742
 13.6084391032426648  9.3440014590099398 14.5339061371325897
 13.6146170391066157 15.8899723113011913 19.2369603234071604
 13.6088761540553005 15.9877740471325591  5.2681414637622277
  7.9578752996017119 14.2776113952493660  7.6485428506507578
 19.2591211281500634 14.2792753150512723  7.6471280305717650
  7.9570281647118355 17.5984920789608132 16.8662464298239634
 19.2662677294689360 17.5995657634747040 16.8603766752381112
 13.6030690197960702 23.9975591864706388 14.4687338140439152
 13.6059761797292467  7.8854782784234922 10.0463662258859383
 17.7544326801026955  8.7556459167565741 12.2033462514876430
  9.4586796839165501  8.7589929100468495 12.2049311217163954
 17.7518216722238478 23.1319221579475887 12.3090626914700039
  9.4538622744035532 23.1259298998196741 12.3118487774298870
  6.5415328815047724 16.7987872698324061 14.5511257794287747
 20.6772298733299564 16.7992143088017549 14.5461905257010979
  6.5430189159947645 15.0784393347559540  9.9667677730816227
 20.6729284732009191 15.0801356918871488  9.9630068676462074
 17.8995008816564010 11.9215748521915259  7.6297599928574114
  9.3169049107690878 11.9219178129571119  7.6307038600471468
 17.9042695996374057 19.9574234163245734 16.8781335073272665
  9.3168893333307814 19.9541708702945932 16.8831572616718759
  6.5412899004216793 18.3844533651283477 12.3390026798341630
 20.6733730855067641 18.3870084798178972 12.3373820235005116
  6.5416991959206703 13.4939041860274980 12.1789614095708600
 20.6744699322616157 13.4930995417714552 12.1726069744211376
 15.0203932702588734  8.5988759001779105 12.2657340870311362
 15.0171834711099610 23.2908048405679722 12.2469751133294693
 14.9638860908800684 21.7182519891520016  7.7024275709196148
 12.2445279032545375 21.7167446997995626  7.7019602405698953
 14.9722444221202426 10.1705835824653654 16.8058260527421268
 12.2505196346280787 10.1713079512485329 16.8064752029763369
  7.9533261719573014 20.8353942275008421 12.3566899678998450
  7.9552948515523365 11.0469565182347349 12.1594068687323276
 19.2572240628601143 20.8405328269150942 12.3557920215397541
 19.2596556443784408 11.0440468854393856 12.1551419543030477
  9.3155389175250018 10.2754867958629230  9.9296656700831925
 17.8991100565041563 21.6110293506439426 14.5820179421442102
  9.3133097759861805 21.6057232343286323 14.5858228209443510
 17.8984696528016656 10.2730114265500134  9.9281554377124390
  7.9046714715782027 19.2153373811269397 14.6098041300969665
  7.9061531999151784 12.6642359853934607  9.9055612765162540
 19.3095880942233471 12.6632802178367001  9.9024125707366526
 19.3122245161305983 19.2185302924324048 14.6063711035216386
 16.3830568043944851  9.3697269518405299 14.4925279614135771
 10.8335637969180443  9.3716884071941564 14.4932956391829979
 16.3775824287253755 22.5204981106708289 10.0192887090892651
 10.8283120361038012 22.5171124699626226 10.0201432482144597
 13.6072370343269888  9.6647149321057846  7.7512151605481083
  8.1495158030846451 12.7569902664567802 16.6946805273011947
 13.6080166416312398 22.2124711319873995 16.7613353873575299
  8.1489992804620748 19.1212643718632691  7.8204066818398008
 19.0733895847965975 12.7555865989579740 16.6891582062017285
 19.0635668527982460 19.1252669502379575  7.8219898375400572
 17.7969154072065727 16.7160662490352721  7.6528587361479090
  9.4190320675883328 16.7143870530776759  7.6522498113716368
 17.8048981012937659 15.1650333479938997 16.8545453570210562
  9.4190253668839841 15.1648497374295630 16.8592950006351252
 16.3436683746764722 19.2329643651348903  7.6722031200705345
 10.8689336981820421 19.2308187360287874  7.6707816872828785
 16.3518765901794083 12.6523229819525369 16.8359394729320186
 10.8713331640162849 12.6530303134665072 16.8387205882572211
 15.0598696114036343 11.9692389377987638  7.6169863688100579
 12.1564909964301133 11.9697674361079116  7.6170592998217330
 15.0632239964950898 19.9098712622770115 16.8906200214502853
 12.1578541810583136 19.9080301377190345 16.8925615000241862
  7.9656284407214963 14.3441603387518466 14.4839675033249957
 19.2532742552826477 14.3433073820414005 14.4790357428675893
  7.9666387982495488 17.5360839228217884 10.0312602378079418
 19.2479072645931133 17.5382751972968016 10.0305675831593213
 17.8006854075553598 11.8302240745006113 14.4607693607321544
  9.4174150070708382 11.8323665350792790 14.4636146045805862
 17.7948100838230125 20.0558554953868828 10.0493321315957687
  9.4160016449004207 20.0522704939276046 10.0491762684021460
 16.4397802783868130 14.3363360735643148  7.6163590338453080
 10.7774182962202900 14.3363001274863926  7.6165658719282554
 16.4454369514209127 17.5442028628447702 16.8892274762846952
 10.7782159567838729 17.5425174923329479 16.8924436083469338
 15.0583913041170270 21.6066556856981897 14.5336151406587089
 12.1534855771806658 21.6045292564781057 14.5354975833356050
 15.0589033272604098 10.2781524865579321  9.9766193224591824
 12.1551487046259918 10.2791348623416532  9.9765903988034594
 13.6063217939563170 19.2453476024935419  7.6533971274971426
 13.6116875229707279 12.6414906076687590 16.8531437486164961
  7.9446816421016901 15.9405764888924164 12.2575708390978484
 19.2717235368566335 15.9409562345221509 12.2544630788909252
 14.9997187578499691 16.7775565572399685  7.5641250776070317
 12.2166952923013508 16.7769574565003374  7.5637499503015126
 15.0053628920981552 15.1059152815247568 16.9400711149396557
 12.2192380406309233 15.1057399189512260 16.9417755802646219
 13.6087415243075469 14.3642791840373540  7.5456990351817108
 13.6120853956284673 17.5164045678839386 16.9590054479387469
 16.4396712170506305 11.0366805107260912 12.2184154225730666
 10.7729824842370903 20.8486237686827138 12.2925424995192500
 10.7756450350457520 11.0387286342373283 12.2193467314998081
 16.4373915052101474 20.8518736650804080 12.2910730471651046
 17.9077319027551027 16.7997034936577307 14.5823354188618399
  9.3114011974559716 16.7982018399494244 14.5859827374984246
 17.9038022071713314 15.0834749114243660  9.9248767755939049
  9.3125512399877142 15.0838511722704229  9.9260350974204385
 10.7027127870054528 19.2103567916165652 14.6029328335296125
 10.7037915520619631 12.6729312614800111  9.9076727981746018
 17.9041945066187154 18.4245142527783585 12.3216275142098688
  9.3107249996405450 18.4219645936636844 12.3234845934975574
 17.9049826216761403 13.4607875604529372 12.1868064307217736
  9.3115985432338775 13.4624798987516527 12.1891563676130588
 16.5143484796888949 19.2132429827124227 14.6004296235864732
 16.5121566168988707 12.6715041494856635  9.9068194954171531
 15.0015837945960619 11.7711934152867155 14.5447600743272663
 12.2166380766160785 11.7718430089926152 14.5456102411607588
 14.9968091738351355 20.1206859089391052  9.9627950985178177
 12.2134727169511006 20.1194029049213903  9.9626263804234725
 13.6048651435417707 20.9094991411349085 12.2428221826362869
 13.6075629018076825 10.9821973216104443 12.2659266275853120
 16.4235757556743280 14.3036989880499270 14.5374567592294355
 10.7960493730707476 14.3042108065123035 14.5398032074371493
 16.4193131860042989 17.5835824679697161  9.9686833943173863
 10.7956541059545472 17.5825654775440761  9.9687319679209434
 13.6086779666155504 19.1771703229454928 14.5745788873847477
 13.6080070670980557 12.7091130738295899  9.9319639803249444
 15.0327785819356610 16.7503245168902239 14.5809403357029552
 12.1871362084416095 16.7497610517975524 14.5820367168450211
 15.0302127022666294 15.1372498526390480  9.9233080613729729
 12.1865851209595117 15.1374954107891071  9.9236498901826948
 13.6099340755831566 14.2872382523886721 14.5627903491754775
 13.6075419584793575 17.6027565285756324  9.9422297281234115
 10.7643012565887517 15.9439877990477274 12.2541076312896280
 16.4528278367055911 15.9440586688346926 12.2526492464874206
 15.0297852140390340 18.4098987208407756 12.2711883668539485
 12.1854632517487342 18.4090956851620398 12.2717438606035252
 15.0309304819140834 13.4804495771843609 12.2341584369621330
 12.1861467723356167 13.4811443217321489 12.2348750214520567
 13.6087276603596479 15.9453941021960208 12.2521365922055079
