Au  
    1.000000
   16.440400     0.000000     0.000000
    0.000000    16.309500     0.000000
    0.000000     0.000000    16.094500
 55   
Direct
    0.295743     0.371168     0.215726
    0.466268     0.366545     0.206179
    0.636823     0.371340     0.215661
    0.376533     0.522827     0.205902
    0.555965     0.522887     0.205967
    0.466256     0.669156     0.215633
    0.290770     0.264180     0.352308
    0.466317     0.260798     0.349799
    0.641924     0.264289     0.352242
    0.378486     0.420212     0.354395
    0.554216     0.420244     0.354372
    0.731859     0.420906     0.352255
    0.200892     0.420855     0.352317
    0.466331     0.572942     0.354396
    0.647339     0.576474     0.349617
    0.285495     0.576445     0.349600
    0.556018     0.727561     0.352245
    0.376568     0.727600     0.352295
    0.295840     0.172885     0.500219
    0.466281     0.161565     0.498925
    0.636696     0.172976     0.500194
    0.200915     0.316404     0.501801
    0.378641     0.318062     0.500351
    0.554035     0.318078     0.500306
    0.731852     0.316436     0.501808
    0.290700     0.470892     0.500307
    0.466343     0.470910     0.500330
    0.641873     0.470789     0.500358
    0.808155     0.470810     0.500351
    0.124438     0.470624     0.500426
    0.378627     0.623683     0.500413
    0.554055     0.623681     0.500425
    0.731722     0.625132     0.498957
    0.200783     0.625104     0.498862
    0.466311     0.779945     0.501677
    0.636857     0.768738     0.500309
    0.295724     0.768689     0.500314
    0.376493     0.214251     0.648327
    0.555975     0.214263     0.648335
    0.285487     0.365559     0.651016
    0.466419     0.368910     0.646284
    0.647434     0.365433     0.651076
    0.378613     0.521634     0.646311
    0.554222     0.521611     0.646343
    0.731889     0.520839     0.648431
    0.200926     0.520816     0.648358
    0.466355     0.681271     0.650820
    0.641862     0.677771     0.648516
    0.290772     0.677684     0.648452
    0.466142     0.272629     0.784979
    0.376730     0.418973     0.794791
    0.555893     0.418897     0.794662
    0.466345     0.576214     0.794383
    0.636911     0.570286     0.785001
    0.295761     0.570262     0.784931
